(set-option :print-success false)
(set-logic QF_UF)
(declare-sort x143 0)
(declare-sort x69 0)
(declare-fun x149 () x69)
(declare-fun x64 () x69)
(declare-fun x135 (x69 x69) x69)
(declare-fun x35 () x69)
(declare-fun x31 () x69)
(declare-fun x109 (x69 x69) x69)
(declare-fun x62 () x69)
(assert (let ((x141 (x135 x35 x31)) (x134 (x135 x62 x35)) (x89 (x135 x31 x35)) (x136 (x135 x62 x31)) (x92 (x135 x62 x64)) (x65 (x135 x149 x64)) (x55 (x135 x31 x64)) (x21 (x135 x35 x35)) (x45 (x135 x64 x149)) (x98 (x135 x35 x149)) (x15 (x135 x149 x62)) (x155 (x135 x35 x62)) (x34 (x135 x62 x62)) (x42 (x135 x64 x31)) (x128 (x135 x62 x149)) (x86 (x135 x64 x62)) (x154 (x135 x35 x64)) (x132 (x135 x149 x149)) (x100 (x135 x31 x149)) (x150 (x135 x31 x62)) (x111 (x135 x64 x35)) (x158 (x135 x149 x35)) (x56 (x135 x31 x31)) (x79 (x135 x149 x31)) (x60 (x135 x64 x64))) (and (and (and (and (and (and (and (and (or (or (or (= x132 x35) (or (= x132 x31) (= x132 x149))) (= x62 x132)) (= x132 x64)) (or (= x79 x64) (or (= x62 x79) (or (= x79 x35) (or (= x79 x149) (= x31 x79)))))) (or (or (or (= x158 x35) (or (= x158 x31) (= x149 x158))) (= x62 x158)) (= x64 x158))) (or (or (or (= x35 x15) (or (= x15 x149) (= x15 x31))) (= x15 x62)) (= x15 x64))) (or (= x65 x64) (or (or (= x35 x65) (or (= x31 x65) (= x149 x65))) (= x65 x62)))) (and (or (= x55 x64) (or (= x62 x55) (or (or (= x55 x31) (= x55 x149)) (= x35 x55)))) (and (and (or (or (= x62 x89) (or (= x35 x89) (or (= x89 x31) (= x149 x89)))) (= x64 x89)) (and (or (= x64 x56) (or (= x62 x56) (or (= x35 x56) (or (= x56 x149) (= x56 x31))))) (or (= x100 x64) (or (= x100 x62) (or (= x100 x35) (or (= x100 x149) (= x31 x100))))))) (or (or (= x62 x150) (or (= x35 x150) (or (= x31 x150) (= x149 x150)))) (= x150 x64))))) (and (or (or (or (= x35 x154) (or (= x149 x154) (= x154 x31))) (= x154 x62)) (= x64 x154)) (and (or (= x155 x64) (or (= x62 x155) (or (= x155 x35) (or (= x31 x155) (= x149 x155))))) (and (or (or (= x62 x21) (or (or (= x21 x31) (= x149 x21)) (= x21 x35))) (= x21 x64)) (and (or (or (or (or (= x141 x31) (= x141 x149)) (= x35 x141)) (= x141 x62)) (= x64 x141)) (or (= x64 x98) (or (or (= x98 x35) (or (= x31 x98) (= x98 x149))) (= x62 x98)))))))) (and (and (and (and (or (or (= x62 x136) (or (= x35 x136) (or (= x136 x149) (= x31 x136)))) (= x136 x64)) (or (or (= x62 x128) (or (= x128 x35) (or (= x128 x149) (= x128 x31)))) (= x64 x128))) (or (= x134 x64) (or (= x134 x62) (or (or (= x134 x31) (= x149 x134)) (= x35 x134))))) (or (= x34 x64) (or (or (or (= x34 x31) (= x34 x149)) (= x35 x34)) (= x34 x62)))) (or (= x92 x64) (or (or (= x35 x92) (or (= x92 x149) (= x31 x92))) (= x62 x92))))) (and (and (and (or (or (or (= x35 x111) (or (= x31 x111) (= x149 x111))) (= x62 x111)) (= x64 x111)) (and (or (or (= x62 x45) (or (= x45 x35) (or (= x45 x149) (= x45 x31)))) (= x64 x45)) (or (or (= x62 x42) (or (or (= x42 x149) (= x31 x42)) (= x35 x42))) (= x64 x42)))) (or (= x86 x64) (or (= x62 x86) (or (= x86 x35) (or (= x31 x86) (= x149 x86)))))) (or (= x60 x64) (or (or (or (= x31 x60) (= x60 x149)) (= x60 x35)) (= x62 x60)))))))
(assert (and (= x62 (x135 x31 x149)) (and (and (= (x135 x64 x64) x149) (= (x135 x149 x64) x31)) (= (x135 x149 x31) x35))))
(assert (let ((x42 (x135 x31 x64)) (x138 (x135 x64 x31)) (x73 (x135 x64 x62)) (x137 (x135 x64 x64)) (x65 (x135 x149 x62)) (x100 (x135 x149 x64)) (x130 (x135 x35 x35)) (x150 (x135 x35 x149)) (x158 (x135 x149 x31)) (x92 (x135 x31 x35)) (x79 (x135 x149 x149)) (x45 (x135 x31 x62)) (x15 (x135 x149 x35)) (x55 (x135 x62 x149)) (x63 (x135 x62 x62)) (x106 (x135 x62 x64)) (x75 (x135 x62 x35)) (x66 (x135 x64 x35)) (x108 (x135 x35 x64)) (x89 (x135 x31 x149)) (x98 (x135 x64 x149)) (x7 (x135 x62 x31)) (x34 (x135 x31 x31)) (x24 (x135 x35 x62)) (x60 (x135 x35 x31))) (let ((x43 (= x62 x34)) (x78 (= x64 x24)) (x145 (= x62 x130)) (x53 (= x64 x158)) (x128 (= x158 x149)) (x77 (= x98 x64)) (x110 (= x42 x35)) (x144 (= x149 x92)) (x36 (= x150 x35)) (x156 (= x7 x149)) (x140 (= x42 x62)) (x3 (= x31 x137)) (x104 (= x149 x106)) (x9 (= x108 x35)) (x112 (= x55 x31)) (x1 (= x62 x92)) (x67 (= x62 x24)) (x74 (= x62 x66)) (x19 (= x64 x63)) (x47 (= x35 x106)) (x119 (= x31 x63)) (x118 (= x31 x130)) (x37 (= x64 x45)) (x22 (= x62 x108)) (x28 (= x92 x31)) (x52 (= x24 x31)) (x117 (= x31 x73)) (x87 (= x31 x42)) (x57 (= x45 x35)) (x86 (= x34 x31)) (x5 (= x65 x149)) (x93 (= x108 x149)) (x82 (= x35 x34)) (x131 (= x45 x62)) (x41 (= x7 x62)) (x68 (= x100 x62)) (x116 (= x60 x64)) (x2 (= x149 x75)) (x83 (= x15 x149)) (x122 (= x31 x66)) (x39 (= x24 x149)) (x95 (= x106 x31)) (x132 (= x149 x79)) (x105 (= x138 x31)) (x107 (= x106 x64)) (x142 (= x100 x31)) (x91 (= x149 x137)) (x14 (= x149 x150)) (x127 (= x62 x60)) (x157 (= x138 x64)) (x71 (= x92 x64)) (x146 (= x31 x108)) (x30 (= x35 x15)) (x125 (= x130 x64)) (x153 (= x35 x75)) (x38 (= x63 x35)) (x10 (= x62 x63)) (x154 (= x89 x149)) (x12 (= x62 x65)) (x84 (= x24 x35)) (x136 (= x34 x149)) (x17 (= x66 x149)) (x139 (= x92 x35)) (x59 (= x98 x31)) (x72 (= x60 x149)) (x159 (= x158 x35)) (x96 (= x149 x63)) (x27 (= x7 x35)) (x141 (= x79 x35)) (x54 (= x42 x64)) (x152 (= x15 x64)) (x103 (= x62 x137)) (x21 (= x62 x79)) (x4 (= x65 x35)) (x147 (= x149 x98)) (x148 (= x55 x62)) (x115 (= x35 x138)) (x6 (= x73 x149)) (x111 (= x31 x158)) (x11 (= x149 x45)) (x33 (= x7 x31)) (x90 (= x62 x75)) (x81 (= x35 x89)) (x46 (= x35 x55)) (x76 (= x138 x62)) (x129 (= x75 x64)) (x155 (= x64 x79)) (x126 (= x149 x138)) (x29 (= x64 x55)) (x80 (= x73 x35)) (x94 (= x64 x108)) (x32 (= x62 x98)) (x58 (= x31 x60)) (x88 (= x35 x100)) (x97 (= x150 x31)) (x99 (= x130 x149)) (x13 (= x100 x64)) (x20 (= x15 x31)) (x40 (= x150 x62)) (x56 (= x31 x79)) (x44 (= x42 x149)) (x51 (= x15 x62)) (x23 (= x64 x89)) (x151 (= x149 x100)) (x70 (= x130 x35)) (x18 (= x64 x7)) (x124 (= x31 x75)) (x133 (= x65 x31)) (x121 (= x73 x62)) (x102 (= x64 x137)) (x120 (= x64 x73)) (x113 (= x137 x35)) (x49 (= x62 x89)) (x8 (= x35 x98)) (x101 (= x35 x66)) (x85 (= x62 x106)) (x134 (= x31 x89)) (x16 (= x60 x35)) (x50 (= x34 x64)) (x123 (= x64 x66)) (x61 (= x150 x64)) (x48 (= x149 x55)) (x25 (= x65 x64)) (x26 (= x45 x31)) (x114 (= x158 x62))) (and (and (and (and (and (and (and (or (or (or x40 (or x49 x21)) x148) x32) (or (or (or x51 (or x114 x21)) x12) x68)) (and (and (or (or x4 (or (or x159 x141) x30)) x88) (or (or x46 (or (or x141 x81) x36)) x8)) (and (and (or x142 (or x133 (or (or x56 x111) x20))) (or (or (or (or x56 x134) x97) x112) x59)) (and (or (or x48 (or x14 (or x154 x132))) x147) (or (or x5 (or (or x128 x132) x83)) x151))))) (and (or (or (or x152 (or x155 x53)) x25) x13) (or (or x29 (or (or x23 x155) x61)) x77))) (and (and (or (or x37 (or x71 (or x50 x23))) x54) (or (or (or (or x53 x50) x116) x18) x157)) (and (and (and (or (or x27 (or (or x82 x159) x16)) x115) (or (or (or (or x82 x81) x139) x57) x110)) (and (and (or (or (or x72 (or x128 x136)) x156) x126) (or (or (or x144 (or x154 x136)) x11) x44)) (and (or x87 (or x26 (or x28 (or x86 x134)))) (or x105 (or (or x58 (or x86 x111)) x33))))) (and (or x140 (or x131 (or (or x49 x43) x1))) (or x76 (or (or (or x43 x114) x127) x41)))))) (and (and (or (or (or x125 (or x71 x152)) x129) x123) (or (or x78 (or (or x116 x61) x125)) x94)) (and (and (and (and (or (or x124 (or (or x20 x28) x118)) x122) (or (or (or x118 (or x97 x58)) x52) x146)) (and (or x17 (or (or (or x83 x144) x99) x2)) (or (or (or (or x72 x14) x99) x39) x93))) (and (or x9 (or (or (or x16 x36) x70) x84)) (or (or x153 (or (or x30 x139) x70)) x101))) (and (or (or (or (or x51 x1) x145) x90) x74) (or (or (or x145 (or x40 x127)) x67) x22))))) (and (and (or (or (or x129 (or x18 x29)) x19) x107) (or x120 (or x19 (or (or x25 x37) x78)))) (and (and (and (or x47 (or x38 (or x153 (or x27 x46)))) (or (or (or x84 (or x4 x57)) x38) x80)) (and (and (or x95 (or x119 (or (or x112 x33) x124))) (or (or x119 (or x52 (or x26 x133))) x117)) (and (or x104 (or x96 (or x2 (or x48 x156)))) (or x6 (or (or x39 (or x5 x11)) x96))))) (and (or (or (or x90 (or x41 x148)) x10) x85) (or x121 (or x10 (or x67 (or x12 x131)))))))) (and (and (or x102 (or (or (or x54 x13) x94) x107)) (or x102 (or x120 (or (or x77 x157) x123)))) (and (and (or (or (or (or x32 x76) x74) x121) x103) (or x103 (or x85 (or (or x68 x140) x22)))) (and (and (or x113 (or (or (or x110 x88) x9) x47)) (or (or (or (or x115 x8) x101) x80) x113)) (and (and (or x91 (or (or (or x151 x44) x93) x104)) (or x91 (or (or x17 (or x126 x147)) x6))) (and (or (or (or (or x87 x142) x146) x95) x3) (or (or x117 (or x122 (or x59 x105))) x3))))))))))
(assert (let ((x132 (x135 x149 x149)) (x155 (x135 x62 x35)) (x150 (x135 x35 x35)) (x60 (x135 x64 x64)) (x141 (x135 x62 x31)) (x21 (x135 x31 x62)) (x15 (x135 x31 x31)) (x79 (x135 x31 x149)) (x154 (x135 x35 x62)) (x65 (x135 x35 x149)) (x128 (x135 x62 x62)) (x134 (x135 x149 x64)) (x56 (x135 x35 x31)) (x86 (x135 x62 x64)) (x55 (x135 x62 x149)) (x34 (x135 x64 x31)) (x111 (x135 x64 x62)) (x98 (x135 x149 x62)) (x158 (x135 x149 x31)) (x89 (x135 x31 x35)) (x92 (x135 x31 x64)) (x136 (x135 x64 x149)) (x42 (x135 x35 x64)) (x45 (x135 x64 x35)) (x100 (x135 x149 x35))) (and (and (and (or (or (or (not (= x150 x150)) (or (not (= x100 x65)) (not (= x56 x89)))) (not (= x154 x155))) (not (= x45 x42))) (and (or (not (= x136 x134)) (or (not (= x98 x55)) (or (or (not (= x132 x132)) (not (= x79 x158))) (not (= x100 x65))))) (or (or (not (= x21 x141)) (or (or (not (= x15 x15)) (not (= x79 x158))) (not (= x89 x56)))) (not (= x34 x92))))) (or (or (or (or (not (= x98 x55)) (not (= x141 x21))) (not (= x155 x154))) (not (= x128 x128))) (not (= x111 x86)))) (or (not (= x60 x60)) (or (or (not (= x45 x42)) (or (not (= x92 x34)) (not (= x136 x134)))) (not (= x111 x86)))))))
(assert (let ((x21 (x135 x35 x35)) (x155 (x135 x62 x35)) (x56 (x135 x31 x31)) (x100 (x135 x149 x31)) (x15 (x135 x62 x149)) (x45 (x135 x149 x64)) (x60 (x135 x64 x64)) (x136 (x135 x31 x62)) (x141 (x135 x31 x35)) (x92 (x135 x64 x62)) (x55 (x135 x64 x31)) (x150 (x135 x62 x31)) (x34 (x135 x62 x62)) (x128 (x135 x149 x62)) (x158 (x135 x35 x149)) (x79 (x135 x31 x149)) (x65 (x135 x64 x149)) (x86 (x135 x62 x64)) (x89 (x135 x35 x31)) (x42 (x135 x31 x64)) (x98 (x135 x149 x35)) (x132 (x135 x149 x149)) (x154 (x135 x64 x35)) (x111 (x135 x35 x64)) (x134 (x135 x35 x62))) (and (and (and (and (not (= x111 x60)) (and (not (= x111 x86)) (and (not (= x42 x60)) (and (and (not (= x42 x111)) (and (and (and (not (= x45 x42)) (not (= x111 x45))) (not (= x45 x86))) (not (= x60 x45)))) (not (= x86 x42)))))) (not (= x86 x60))) (and (and (and (and (not (= x21 x154)) (and (not (= x21 x155)) (and (not (= x141 x154)) (and (and (not (= x21 x141)) (and (and (not (= x155 x98)) (and (not (= x98 x141)) (not (= x98 x21)))) (not (= x154 x98)))) (not (= x141 x155)))))) (not (= x155 x154))) (and (and (and (and (and (and (and (and (and (and (not (= x132 x158)) (not (= x132 x79))) (not (= x15 x132))) (not (= x65 x132))) (not (= x79 x158))) (not (= x15 x79))) (not (= x65 x79))) (not (= x15 x158))) (not (= x158 x65))) (not (= x15 x65))) (and (and (and (and (and (not (= x56 x150)) (and (not (= x89 x56)) (and (and (not (= x100 x150)) (and (not (= x100 x89)) (not (= x100 x56)))) (not (= x100 x55))))) (not (= x56 x55))) (not (= x150 x89))) (not (= x89 x55))) (not (= x150 x55))))) (and (not (= x34 x92)) (and (and (not (= x134 x34)) (and (not (= x136 x92)) (and (not (= x34 x136)) (and (and (and (and (not (= x136 x128)) (not (= x128 x134))) (not (= x128 x34))) (not (= x92 x128))) (not (= x134 x136)))))) (not (= x134 x92)))))) (and (and (and (and (and (not (= x34 x155)) (and (not (= x86 x150)) (and (and (not (= x155 x150)) (and (and (not (= x15 x34)) (and (not (= x150 x15)) (not (= x155 x15)))) (not (= x86 x15)))) (not (= x150 x34))))) (not (= x86 x155))) (not (= x86 x34))) (and (and (not (= x134 x111)) (and (not (= x21 x111)) (and (and (not (= x89 x111)) (and (not (= x134 x89)) (and (and (and (and (not (= x89 x158)) (not (= x158 x21))) (not (= x158 x134))) (not (= x158 x111))) (not (= x21 x89))))) (not (= x21 x134))))) (and (and (and (not (= x42 x141)) (and (and (and (not (= x56 x136)) (and (and (not (= x79 x42)) (and (not (= x79 x136)) (and (not (= x79 x141)) (not (= x79 x56))))) (not (= x141 x56)))) (not (= x42 x56))) (not (= x141 x136)))) (not (= x136 x42))) (and (and (not (= x98 x45)) (and (not (= x128 x98)) (and (and (not (= x128 x100)) (and (not (= x100 x98)) (and (not (= x45 x132)) (and (and (not (= x100 x132)) (not (= x132 x98))) (not (= x132 x128)))))) (not (= x100 x45))))) (not (= x128 x45)))))) (and (and (not (= x154 x60)) (and (and (and (and (not (= x154 x55)) (and (and (and (not (= x55 x65)) (not (= x154 x65))) (not (= x92 x65))) (not (= x65 x60)))) (not (= x92 x55))) (not (= x60 x55))) (not (= x92 x154)))) (not (= x92 x60)))))))
(assert (let ((x61 (x135 x62 x62)) (x112 (x135 x64 x64)) (x130 (x135 x31 x64)) (x23 (x135 x149 x64)) (x82 (x135 x149 x35)) (x81 (x135 x149 x31)) (x53 (x135 x64 x149)) (x49 (x135 x35 x149)) (x71 (x135 x64 x62)) (x99 (x135 x35 x31)) (x7 (x135 x149 x149)) (x43 (x135 x62 x149)) (x24 (x135 x64 x31)) (x36 (x135 x35 x62)) (x144 (x135 x31 x35)) (x139 (x135 x64 x35)) (x72 (x135 x31 x31)) (x97 (x135 x31 x62)) (x58 (x135 x62 x31)) (x30 (x135 x35 x64)) (x152 (x135 x62 x64)) (x75 (x135 x35 x35)) (x16 (x135 x62 x35)) (x159 (x135 x31 x149)) (x114 (x135 x149 x62))) (let ((x33 (= x112 x31)) (x66 (= x31 x75)) (x52 (= x82 x35)) (x141 (= x149 x58)) (x123 (= x64 x24)) (x76 (= x75 x64)) (x151 (= x75 x62)) (x37 (= x159 x62)) (x146 (= x62 x139)) (x120 (= x64 x130)) (x132 (= x149 x7)) (x148 (= x61 x35)) (x22 (= x64 x16)) (x18 (= x152 x35)) (x84 (= x16 x35)) (x56 (= x149 x99)) (x57 (= x97 x35)) (x125 (= x53 x31)) (x113 (= x99 x64)) (x1 (= x16 x31)) (x122 (= x62 x61)) (x3 (= x71 x62)) (x88 (= x81 x64)) (x46 (= x35 x75)) (x157 (= x64 x23)) (x153 (= x35 x114)) (x2 (= x31 x130)) (x45 (= x149 x139)) (x63 (= x159 x35)) (x136 (= x53 x149)) (x5 (= x31 x139)) (x10 (= x35 x30)) (x124 (= x35 x7)) (x25 (= x7 x62)) (x116 (= x31 x61)) (x14 (= x31 x81)) (x117 (= x62 x53)) (x118 (= x31 x144)) (x34 (= x24 x149)) (x17 (= x62 x99)) (x110 (= x72 x64)) (x50 (= x31 x159)) (x41 (= x53 x35)) (x106 (= x81 x35)) (x107 (= x64 x152)) (x78 (= x81 x62)) (x127 (= x58 x31)) (x92 (= x130 x149)) (x142 (= x62 x24)) (x87 (= x62 x130)) (x65 (= x49 x149)) (x129 (= x35 x112)) (x126 (= x62 x82)) (x131 (= x35 x130)) (x119 (= x99 x35)) (x102 (= x112 x64)) (x101 (= x7 x64)) (x13 (= x139 x64)) (x27 (= x43 x35)) (x73 (= x35 x144)) (x26 (= x49 x35)) (x29 (= x71 x35)) (x85 (= x36 x64)) (x68 (= x58 x64)) (x54 (= x30 x64)) (x156 (= x31 x24)) (x121 (= x114 x64)) (x86 (= x152 x149)) (x140 (= x97 x64)) (x98 (= x114 x149)) (x51 (= x31 x97)) (x145 (= x31 x36)) (x74 (= x43 x64)) (x105 (= x62 x36)) (x32 (= x64 x144)) (x12 (= x24 x35)) (x20 (= x82 x31)) (x70 (= x43 x31)) (x60 (= x149 x112)) (x44 (= x43 x62)) (x155 (= x149 x16)) (x9 (= x49 x64)) (x48 (= x31 x23)) (x134 (= x23 x149)) (x83 (= x72 x31)) (x4 (= x35 x58)) (x19 (= x72 x62)) (x115 (= x62 x112)) (x137 (= x62 x23)) (x90 (= x35 x23)) (x128 (= x149 x61)) (x59 (= x62 x16)) (x89 (= x144 x149)) (x55 (= x43 x149)) (x6 (= x62 x144)) (x147 (= x62 x49)) (x138 (= x7 x31)) (x15 (= x72 x149)) (x96 (= x31 x152)) (x8 (= x62 x152)) (x154 (= x149 x36)) (x28 (= x31 x99)) (x104 (= x58 x62)) (x67 (= x35 x139)) (x95 (= x30 x62)) (x38 (= x35 x36)) (x94 (= x64 x71)) (x91 (= x62 x97)) (x111 (= x71 x149)) (x103 (= x64 x61)) (x42 (= x149 x30)) (x39 (= x31 x71)) (x100 (= x82 x149)) (x79 (= x159 x149)) (x150 (= x75 x149)) (x21 (= x149 x97)) (x47 (= x64 x82)) (x93 (= x62 x114)) (x77 (= x53 x64)) (x133 (= x72 x35)) (x80 (= x64 x159)) (x40 (= x31 x114)) (x158 (= x149 x81)) (x108 (= x49 x31)) (x11 (= x30 x31))) (and (and (and (and (or (or (or (and x39 (not x96)) (or (and x5 (not x11)) (or (and x125 (not x48)) (and x156 (not x2))))) (and (not x33) x33)) (or (or (or (or (or (and (not x66) x66) (or (and (not x118) x28) (and x108 (not x20)))) (and (not x1) x145)) (and x11 (not x5))) (or (or (or (and x40 (not x70)) (or (or (and x14 (not x50)) (and (not x138) x138)) (and (not x108) x20))) (and (not x125) x48)) (or (or (and x51 (not x127)) (or (or (and (not x83) x83) (and (not x14) x50)) (and x118 (not x28)))) (and x2 (not x156))))) (or (or (and (not x116) x116) (or (and (not x145) x1) (or (and (not x51) x127) (and (not x40) x70)))) (and (not x39) x96)))) (or (or (or (or (or (or (and (not x55) x98) (or (or (and (not x79) x158) (and (not x132) x132)) (and x100 (not x65)))) (and (not x136) x134)) (or (or (and x21 (not x141)) (or (or (and x15 (not x15)) (and (not x158) x79)) (and (not x56) x89))) (and (not x34) x92))) (or (or (or (or (and x65 (not x100)) (and (not x89) x56)) (and (not x150) x150)) (and (not x155) x154)) (and x42 (not x45)))) (or (and (not x111) x86) (or (and (not x128) x128) (or (or (and x141 (not x21)) (and (not x98) x55)) (and x155 (not x154)))))) (or (and x60 (not x60)) (or (and x111 (not x86)) (or (or (and (not x92) x34) (and x136 (not x134))) (and x45 (not x42))))))) (or (or (or (or (or (or (or (and x26 (not x52)) (and (not x73) x119)) (and x46 (not x46))) (and x38 (not x84))) (and (not x67) x10)) (or (or (or (and x153 (not x27)) (or (and x52 (not x26)) (or (and x124 (not x124)) (and (not x63) x106)))) (and x90 (not x41))) (or (or (and x57 (not x4)) (or (and (not x119) x73) (or (and x133 (not x133)) (and x63 (not x106))))) (and x131 (not x12))))) (or (and x18 (not x29)) (or (or (and (not x38) x84) (or (and x27 (not x153)) (and (not x57) x4))) (and x148 (not x148))))) (or (and (not x129) x129) (or (and x29 (not x18)) (or (or (and (not x131) x12) (and (not x90) x41)) (and x67 (not x10))))))) (or (or (and (not x115) x115) (or (and x3 (not x8)) (or (or (and (not x137) x117) (and (not x87) x142)) (and x146 (not x95))))) (or (or (or (or (or (or (or (and (not x19) x19) (and (not x78) x37)) (and x6 (not x17))) (and x91 (not x104))) (and (not x142) x87)) (or (and (not x117) x137) (or (or (or (and x78 (not x37)) (and x25 (not x25))) (and x126 (not x147))) (and (not x44) x93)))) (or (or (and x105 (not x59)) (or (and x151 (not x151)) (or (and (not x126) x147) (and x17 (not x6))))) (and (not x146) x95))) (or (and (not x3) x8) (or (and (not x122) x122) (or (and x59 (not x105)) (or (and x44 (not x93)) (and (not x91) x104)))))))) (or (or (or (and (not x94) x107) (or (and (not x103) x103) (or (and x22 (not x85)) (or (and (not x140) x68) (and (not x121) x74))))) (or (or (or (or (or (and (not x32) x113) (and (not x47) x9)) (and x76 (not x76))) (and (not x22) x85)) (and (not x13) x54)) (or (or (or (and x121 (not x74)) (or (or (and (not x80) x88) (and (not x101) x101)) (and (not x9) x47))) (and (not x77) x157)) (or (and x120 (not x123)) (or (and (not x68) x140) (or (or (and x110 (not x110)) (and x80 (not x88))) (and x32 (not x113)))))))) (or (or (or (and x13 (not x54)) (or (and x77 (not x157)) (and (not x120) x123))) (and x94 (not x107))) (and x102 (not x102))))))))
(assert (let ((x100 (x135 x31 x35)) (x155 (x135 x62 x31)) (x89 (x135 x35 x31)) (x134 (x135 x31 x64)) (x55 (x135 x149 x62)) (x86 (x135 x64 x62)) (x60 (not (= x64 (x135 x64 x64)))) (x158 (x135 x31 x149)) (x141 (x135 x35 x62)) (x154 (x135 x62 x35)) (x150 (not (= x35 (x135 x35 x35)))) (x21 (x135 x62 x149)) (x128 (not (= x62 (x135 x62 x62)))) (x42 (x135 x64 x31)) (x92 (x135 x62 x64)) (x136 (x135 x149 x64)) (x65 (x135 x149 x35)) (x79 (x135 x149 x31)) (x111 (x135 x64 x35)) (x56 (x135 x35 x149)) (x15 (not (= (x135 x31 x31) x31))) (x34 (x135 x35 x64)) (x98 (x135 x31 x62)) (x45 (x135 x64 x149)) (x132 (not (= (x135 x149 x149) x149)))) (or (and (and (and (not (= x62 x86)) (and (not (= x35 x111)) (and (not (= x42 x31)) (not (= x149 x45))))) x60) (and x60 (and (and (and (not (= x136 x149)) (not (= x31 x134))) (not (= x34 x35))) (not (= x92 x62))))) (or (and (and (not (= x92 x64)) (and x128 (and (not (= x35 x154)) (and (not (= x21 x149)) (not (= x31 x155)))))) (and (and x128 (and (and (not (= x31 x98)) (not (= x55 x149))) (not (= x141 x35)))) (not (= x64 x86)))) (or (and (and (and (and x150 (and (not (= x56 x149)) (not (= x89 x31)))) (not (= x62 x141))) (not (= x64 x34))) (and (and (not (= x62 x154)) (and x150 (and (not (= x149 x65)) (not (= x31 x100))))) (not (= x111 x64)))) (or (and (and (not (= x64 x45)) (and (not (= x21 x62)) (and (and (not (= x158 x31)) x132) (not (= x56 x35))))) (and (and (not (= x62 x55)) (and (and (not (= x31 x79)) x132) (not (= x65 x35)))) (not (= x64 x136)))) (and (and (not (= x64 x134)) (and (and (not (= x100 x35)) (and x15 (not (= x158 x149)))) (not (= x98 x62)))) (and (not (= x64 x42)) (and (not (= x155 x62)) (and (not (= x35 x89)) (and x15 (not (= x79 x149)))))))))))))
(assert (and (not (= x64 x62)) (and (and (and (and (not (= x31 x62)) (and (not (= x35 x31)) (and (and (and (not (= x149 x35)) (not (= x31 x149))) (not (= x62 x149))) (not (= x64 x149))))) (not (= x64 x31))) (not (= x35 x62))) (not (= x35 x64)))))
(assert (let ((x15 (x135 x62 x62)) (x65 (x135 x64 x64)) (x158 (x135 x35 x35)) (x79 (x135 x31 x31)) (x132 (x135 x149 x149))) (or (and (not (= x64 x65)) (and (not (= x15 x64)) (and (and (not (= x132 x64)) (not (= x64 x79))) (not (= x64 x158))))) (or (or (and (not (= x35 x65)) (and (and (and (not (= x35 x132)) (not (= x79 x35))) (not (= x35 x158))) (not (= x35 x15)))) (or (and (not (= x65 x31)) (and (and (not (= x158 x31)) (and (not (= x79 x31)) (not (= x31 x132)))) (not (= x15 x31)))) (and (and (and (not (= x149 x158)) (and (not (= x149 x132)) (not (= x79 x149)))) (not (= x15 x149))) (not (= x149 x65))))) (and (not (= x62 x65)) (and (not (= x15 x62)) (and (not (= x62 x158)) (and (not (= x132 x62)) (not (= x62 x79))))))))))
(assert (let ((x134 (x135 x35 x62)) (x98 (x135 x149 x35)) (x158 (x135 x35 x149)) (x132 (x135 x149 x149)) (x86 (x135 x62 x64)) (x141 (x135 x31 x35)) (x111 (x135 x35 x64)) (x65 (x135 x64 x149)) (x92 (x135 x64 x62)) (x89 (x135 x35 x31)) (x150 (x135 x62 x31)) (x128 (x135 x149 x62)) (x154 (x135 x64 x35)) (x136 (x135 x31 x62)) (x21 (x135 x35 x35)) (x42 (x135 x31 x64)) (x34 (x135 x62 x62)) (x45 (x135 x149 x64)) (x60 (x135 x64 x64)) (x79 (x135 x31 x149)) (x155 (x135 x62 x35)) (x56 (x135 x31 x31)) (x100 (x135 x149 x31)) (x55 (x135 x64 x31)) (x15 (x135 x62 x149))) (or (and (not (= (x135 x60 x60) x64)) (and (and (not (= x35 (x135 x111 x111))) (and (not (= x149 (x135 x45 x45))) (not (= (x135 x42 x42) x31)))) (not (= x62 (x135 x86 x86))))) (or (or (or (and (and (and (not (= (x135 x158 x158) x35)) (and (not (= x31 (x135 x79 x79))) (not (= (x135 x132 x132) x149)))) (not (= (x135 x15 x15) x62))) (not (= x64 (x135 x65 x65)))) (and (not (= x64 (x135 x55 x55))) (and (not (= (x135 x150 x150) x62)) (and (and (not (= (x135 x100 x100) x149)) (not (= (x135 x56 x56) x31))) (not (= x35 (x135 x89 x89))))))) (and (not (= (x135 x154 x154) x64)) (and (and (not (= (x135 x21 x21) x35)) (and (not (= x31 (x135 x141 x141))) (not (= x149 (x135 x98 x98))))) (not (= (x135 x155 x155) x62))))) (and (not (= (x135 x92 x92) x64)) (and (and (not (= (x135 x134 x134) x35)) (and (not (= (x135 x136 x136) x31)) (not (= x149 (x135 x128 x128))))) (not (= (x135 x34 x34) x62))))))))
(assert (or (or (= x62 (x135 x62 x62)) (or (or (= x149 (x135 x149 x149)) (= (x135 x31 x31) x31)) (= x35 (x135 x35 x35)))) (= x64 (x135 x64 x64))))
(assert (and (and (and (or (= (x135 x64 (x135 x35 x64)) x35) (or (= x35 (x135 x62 (x135 x35 x62))) (or (or (= (x135 x149 (x135 x35 x149)) x35) (= (x135 x31 (x135 x35 x31)) x35)) (= x35 (x135 x35 (x135 x35 x35)))))) (and (or (or (or (= (x135 x35 (x135 x31 x35)) x31) (or (= (x135 x149 (x135 x31 x149)) x31) (= (x135 x31 (x135 x31 x31)) x31))) (= x31 (x135 x62 (x135 x31 x62)))) (= x31 (x135 x64 (x135 x31 x64)))) (or (= x149 (x135 x64 (x135 x149 x64))) (or (or (= (x135 x35 (x135 x149 x35)) x149) (or (= x149 (x135 x149 (x135 x149 x149))) (= x149 (x135 x31 (x135 x149 x31))))) (= (x135 x62 (x135 x149 x62)) x149))))) (or (or (= x62 (x135 x62 (x135 x62 x62))) (or (= x62 (x135 x35 (x135 x62 x35))) (or (= (x135 x31 (x135 x62 x31)) x62) (= x62 (x135 x149 (x135 x62 x149)))))) (= (x135 x64 (x135 x62 x64)) x62))) (or (= x64 (x135 x64 (x135 x64 x64))) (or (= (x135 x62 (x135 x64 x62)) x64) (or (or (= (x135 x31 (x135 x64 x31)) x64) (= x64 (x135 x149 (x135 x64 x149)))) (= (x135 x35 (x135 x64 x35)) x64))))))
(assert (or (and (and (and (= (x135 x64 (x135 x64 x35)) x35) (and (= x149 (x135 x64 (x135 x64 x149))) (= x31 (x135 x64 (x135 x64 x31))))) (= (x135 x64 (x135 x64 x62)) x62)) (= x64 (x135 x64 (x135 x64 x64)))) (or (and (and (and (and (= x149 (x135 x62 (x135 x62 x149))) (= (x135 x62 (x135 x62 x31)) x31)) (= x35 (x135 x62 (x135 x62 x35)))) (= x62 (x135 x62 (x135 x62 x62)))) (= (x135 x62 (x135 x62 x64)) x64)) (or (and (= x64 (x135 x35 (x135 x35 x64))) (and (= x62 (x135 x35 (x135 x35 x62))) (and (and (= (x135 x35 (x135 x35 x31)) x31) (= x149 (x135 x35 (x135 x35 x149)))) (= (x135 x35 (x135 x35 x35)) x35)))) (or (and (= (x135 x31 (x135 x31 x64)) x64) (and (and (= x35 (x135 x31 (x135 x31 x35))) (and (= (x135 x31 (x135 x31 x31)) x31) (= x149 (x135 x31 (x135 x31 x149))))) (= (x135 x31 (x135 x31 x62)) x62))) (and (and (= (x135 x149 (x135 x149 x62)) x62) (and (= x35 (x135 x149 (x135 x149 x35))) (and (= (x135 x149 (x135 x149 x149)) x149) (= x31 (x135 x149 (x135 x149 x31)))))) (= x64 (x135 x149 (x135 x149 x64)))))))))
(assert (not (and (and (and (and (and (= x64 (x135 x64 x149)) (and (and (= x64 (x135 x62 x62)) (and (and (= x149 (x135 x62 x31)) (and (and (and (and (= (x135 x35 x35) x62) (and (and (= x31 (x135 x35 x149)) (and (and (= (x135 x31 x62) x35) (and (= (x135 x31 x35) x149) (and (and (and (and (= x62 (x135 x149 x62)) (and (= (x135 x149 x35) x64) (and (= (x135 x149 x149) x149) (= x35 (x135 x149 x31))))) (= x31 (x135 x149 x64))) (= x62 (x135 x31 x149))) (= x31 (x135 x31 x31))))) (= x64 (x135 x31 x64)))) (= (x135 x35 x31) x64))) (= x149 (x135 x35 x62))) (= (x135 x35 x64) x35)) (= (x135 x62 x149) x35))) (= (x135 x62 x35) x31))) (= x62 (x135 x62 x64)))) (= x62 (x135 x64 x31))) (= x35 (x135 x64 x35))) (= x31 (x135 x64 x62))) (= (x135 x64 x64) x149))))
(assert (or (or (or (or (and (and (and (not (= (x135 x31 (x135 x31 x35)) x35)) (and (not (= (x135 x31 (x135 x31 x149)) x149)) (not (= (x135 x31 (x135 x31 x31)) x31)))) (not (= (x135 x31 (x135 x31 x62)) x62))) (not (= x64 (x135 x31 (x135 x31 x64))))) (and (not (= (x135 x149 (x135 x149 x64)) x64)) (and (and (not (= (x135 x149 (x135 x149 x35)) x35)) (and (not (= (x135 x149 (x135 x149 x149)) x149)) (not (= (x135 x149 (x135 x149 x31)) x31)))) (not (= (x135 x149 (x135 x149 x62)) x62))))) (and (and (and (and (not (= (x135 x35 (x135 x35 x31)) x31)) (not (= x149 (x135 x35 (x135 x35 x149))))) (not (= (x135 x35 (x135 x35 x35)) x35))) (not (= (x135 x35 (x135 x35 x62)) x62))) (not (= x64 (x135 x35 (x135 x35 x64)))))) (and (not (= (x135 x62 (x135 x62 x64)) x64)) (and (not (= (x135 x62 (x135 x62 x62)) x62)) (and (and (not (= x31 (x135 x62 (x135 x62 x31)))) (not (= (x135 x62 (x135 x62 x149)) x149))) (not (= (x135 x62 (x135 x62 x35)) x35)))))) (and (not (= (x135 x64 (x135 x64 x64)) x64)) (and (and (and (not (= x31 (x135 x64 (x135 x64 x31)))) (not (= x149 (x135 x64 (x135 x64 x149))))) (not (= x35 (x135 x64 (x135 x64 x35))))) (not (= (x135 x64 (x135 x64 x62)) x62))))))
(assert (and (and (and (and (or (or (not (= x62 (x135 (x135 x62 x149) x149))) (or (or (not (= x149 (x135 (x135 x149 x149) x149))) (not (= (x135 (x135 x31 x149) x149) x31))) (not (= (x135 (x135 x35 x149) x149) x35)))) (not (= (x135 (x135 x64 x149) x149) x64))) (or (not (= x64 (x135 (x135 x64 x31) x31))) (or (or (or (not (= (x135 (x135 x31 x31) x31) x31)) (not (= (x135 (x135 x149 x31) x31) x149))) (not (= x35 (x135 (x135 x35 x31) x31)))) (not (= x62 (x135 (x135 x62 x31) x31)))))) (or (not (= x64 (x135 (x135 x64 x35) x35))) (or (not (= x62 (x135 (x135 x62 x35) x35))) (or (or (not (= (x135 (x135 x31 x35) x35) x31)) (not (= x149 (x135 (x135 x149 x35) x35)))) (not (= x35 (x135 (x135 x35 x35) x35))))))) (or (not (= x64 (x135 (x135 x64 x62) x62))) (or (or (not (= x35 (x135 (x135 x35 x62) x62))) (or (not (= (x135 (x135 x149 x62) x62) x149)) (not (= (x135 (x135 x31 x62) x62) x31)))) (not (= (x135 (x135 x62 x62) x62) x62))))) (or (or (not (= x62 (x135 (x135 x62 x64) x64))) (or (not (= x35 (x135 (x135 x35 x64) x64))) (or (not (= (x135 (x135 x149 x64) x64) x149)) (not (= x31 (x135 (x135 x31 x64) x64)))))) (not (= x64 (x135 (x135 x64 x64) x64))))))
(assert (let ((x53 (x135 x64 x149)) (x159 (x135 x31 x149)) (x139 (x135 x64 x35)) (x30 (x135 x35 x64)) (x75 (x135 x35 x35)) (x114 (x135 x149 x62)) (x99 (x135 x35 x31)) (x7 (x135 x149 x149)) (x82 (x135 x149 x35)) (x97 (x135 x31 x62)) (x61 (x135 x62 x62)) (x130 (x135 x31 x64)) (x49 (x135 x35 x149)) (x144 (x135 x31 x35)) (x23 (x135 x149 x64)) (x81 (x135 x149 x31)) (x43 (x135 x62 x149)) (x71 (x135 x64 x62)) (x36 (x135 x35 x62)) (x58 (x135 x62 x31)) (x72 (x135 x31 x31)) (x24 (x135 x64 x31)) (x152 (x135 x62 x64)) (x16 (x135 x62 x35)) (x112 (x135 x64 x64))) (let ((x133 (= x72 x35)) (x101 (= x7 x64)) (x34 (= x24 x149)) (x119 (= x35 x99)) (x22 (= x16 x64)) (x68 (= x58 x64)) (x88 (= x81 x64)) (x77 (= x64 x53)) (x90 (= x35 x23)) (x52 (= x82 x35)) (x106 (= x81 x35)) (x33 (= x31 x112)) (x66 (= x75 x31)) (x83 (= x72 x31)) (x148 (= x61 x35)) (x151 (= x62 x75)) (x56 (= x99 x149)) (x32 (= x144 x64)) (x44 (= x43 x62)) (x47 (= x64 x82)) (x120 (= x130 x64)) (x127 (= x31 x58)) (x95 (= x62 x30)) (x4 (= x58 x35)) (x102 (= x64 x112)) (x105 (= x62 x36)) (x103 (= x61 x64)) (x150 (= x149 x75)) (x12 (= x24 x35)) (x123 (= x24 x64)) (x3 (= x71 x62)) (x41 (= x35 x53)) (x55 (= x43 x149)) (x63 (= x159 x35)) (x125 (= x31 x53)) (x145 (= x36 x31)) (x87 (= x62 x130)) (x111 (= x71 x149)) (x117 (= x62 x53)) (x67 (= x139 x35)) (x80 (= x64 x159)) (x76 (= x64 x75)) (x84 (= x35 x16)) (x129 (= x35 x112)) (x74 (= x43 x64)) (x79 (= x159 x149)) (x40 (= x31 x114)) (x107 (= x152 x64)) (x157 (= x23 x64)) (x51 (= x97 x31)) (x46 (= x35 x75)) (x73 (= x144 x35)) (x108 (= x31 x49)) (x93 (= x114 x62)) (x11 (= x31 x30)) (x134 (= x23 x149)) (x1 (= x31 x16)) (x18 (= x35 x152)) (x126 (= x62 x82)) (x124 (= x35 x7)) (x131 (= x35 x130)) (x28 (= x31 x99)) (x91 (= x97 x62)) (x65 (= x149 x49)) (x100 (= x149 x82)) (x141 (= x58 x149)) (x6 (= x62 x144)) (x94 (= x71 x64)) (x136 (= x149 x53)) (x122 (= x62 x61)) (x96 (= x152 x31)) (x13 (= x64 x139)) (x121 (= x114 x64)) (x21 (= x97 x149)) (x48 (= x31 x23)) (x57 (= x97 x35)) (x20 (= x82 x31)) (x146 (= x62 x139)) (x38 (= x36 x35)) (x5 (= x139 x31)) (x158 (= x81 x149)) (x118 (= x144 x31)) (x42 (= x149 x30)) (x92 (= x130 x149)) (x2 (= x31 x130)) (x15 (= x72 x149)) (x10 (= x30 x35)) (x60 (= x149 x112)) (x132 (= x7 x149)) (x9 (= x49 x64)) (x78 (= x62 x81)) (x19 (= x72 x62)) (x137 (= x62 x23)) (x8 (= x152 x62)) (x37 (= x62 x159)) (x89 (= x149 x144)) (x50 (= x31 x159)) (x39 (= x71 x31)) (x140 (= x64 x97)) (x26 (= x49 x35)) (x138 (= x7 x31)) (x110 (= x64 x72)) (x86 (= x149 x152)) (x54 (= x64 x30)) (x154 (= x149 x36)) (x116 (= x61 x31)) (x45 (= x149 x139)) (x59 (= x62 x16)) (x14 (= x31 x81)) (x27 (= x43 x35)) (x85 (= x64 x36)) (x115 (= x62 x112)) (x25 (= x7 x62)) (x17 (= x62 x99)) (x113 (= x99 x64)) (x98 (= x114 x149)) (x128 (= x149 x61)) (x153 (= x35 x114)) (x155 (= x16 x149)) (x156 (= x31 x24)) (x147 (= x49 x62)) (x70 (= x31 x43)) (x29 (= x35 x71)) (x104 (= x58 x62)) (x142 (= x24 x62))) (and (and (or (or (and x115 x115) (or (or (or (and x142 x87) (and x117 x137)) (and x146 x95)) (and x3 x8))) (or (or (or (or (or (or (and x6 x17) (or (and x78 x37) (and x19 x19))) (and x104 x91)) (and x87 x142)) (or (or (or (or (and x25 x25) (and x37 x78)) (and x126 x147)) (and x44 x93)) (and x117 x137))) (or (or (or (and x151 x151) (or (and x126 x147) (and x6 x17))) (and x105 x59)) (and x146 x95))) (or (and x3 x8) (or (and x122 x122) (or (or (and x91 x104) (and x44 x93)) (and x59 x105)))))) (and (and (or (or (or (or (or (or (and x70 x40) (and x127 x51)) (and x1 x145)) (and x116 x116)) (and x39 x96)) (or (or (or (or (or (and x118 x28) (or (and x83 x83) (and x14 x50))) (and x127 x51)) (and x2 x156)) (or (or (or (or (and x50 x14) (and x138 x138)) (and x108 x20)) (and x40 x70)) (and x125 x48))) (or (or (and x1 x145) (or (or (and x108 x20) (and x118 x28)) (and x66 x66))) (and x11 x5)))) (or (and x33 x33) (or (and x39 x96) (or (or (and x156 x2) (and x125 x48)) (and x11 x5))))) (or (or (and x60 x60) (or (and x111 x86) (or (or (and x134 x136) (and x92 x34)) (and x42 x45)))) (or (or (and x111 x86) (or (and x128 x128) (or (and x155 x154) (or (and x141 x21) (and x98 x55))))) (or (or (or (and x134 x136) (or (or (and x100 x65) (or (and x79 x158) (and x132 x132))) (and x55 x98))) (or (and x92 x34) (or (and x21 x141) (or (or (and x79 x158) (and x15 x15)) (and x56 x89))))) (or (or (or (and x150 x150) (or (and x100 x65) (and x56 x89))) (and x154 x155)) (and x42 x45)))))) (or (or (or (and x29 x18) (or (and x148 x148) (or (or (and x4 x57) (and x153 x27)) (and x84 x38)))) (or (or (or (or (or (or (and x106 x63) (and x124 x124)) (and x52 x26)) (and x153 x27)) (and x41 x90)) (or (and x131 x12) (or (and x57 x4) (or (and x73 x119) (or (and x133 x133) (and x106 x63)))))) (or (and x10 x67) (or (or (or (and x73 x119) (and x26 x52)) (and x46 x46)) (and x38 x84))))) (or (and x129 x129) (or (or (or (and x90 x41) (and x12 x131)) (and x10 x67)) (and x29 x18)))))) (or (or (or (or (or (or (or (or (and x80 x88) (and x110 x110)) (and x113 x32)) (and x140 x68)) (and x123 x120)) (or (and x157 x77) (or (and x74 x121) (or (or (and x80 x88) (and x101 x101)) (and x47 x9))))) (or (and x13 x54) (or (and x85 x22) (or (or (and x47 x9) (and x113 x32)) (and x76 x76))))) (or (or (or (and x85 x22) (or (and x121 x74) (and x68 x140))) (and x103 x103)) (and x94 x107))) (or (and x102 x102) (or (and x94 x107) (or (or (and x77 x157) (and x120 x123)) (and x54 x13)))))))))
(assert (and (or (= (x135 (x135 x64 x64) x64) x64) (or (= x62 (x135 (x135 x64 x62) x64)) (or (= x35 (x135 (x135 x64 x35) x64)) (or (= (x135 (x135 x64 x149) x64) x149) (= (x135 (x135 x64 x31) x64) x31))))) (and (and (or (or (or (or (= x31 (x135 (x135 x35 x31) x35)) (= x149 (x135 (x135 x35 x149) x35))) (= x35 (x135 (x135 x35 x35) x35))) (= (x135 (x135 x35 x62) x35) x62)) (= (x135 (x135 x35 x64) x35) x64)) (and (or (= x64 (x135 (x135 x149 x64) x149)) (or (= (x135 (x135 x149 x62) x149) x62) (or (= (x135 (x135 x149 x35) x149) x35) (or (= (x135 (x135 x149 x149) x149) x149) (= (x135 (x135 x149 x31) x149) x31))))) (or (or (= x62 (x135 (x135 x31 x62) x31)) (or (= (x135 (x135 x31 x35) x31) x35) (or (= x149 (x135 (x135 x31 x149) x31)) (= x31 (x135 (x135 x31 x31) x31))))) (= x64 (x135 (x135 x31 x64) x31))))) (or (or (= x62 (x135 (x135 x62 x62) x62)) (or (= (x135 (x135 x62 x35) x62) x35) (or (= (x135 (x135 x62 x31) x62) x31) (= x149 (x135 (x135 x62 x149) x62))))) (= x64 (x135 (x135 x62 x64) x62))))))
(check-sat)
(exit)
